NAME : 0.1396312.tour
COMMENT : Length = 1396312
COMMENT : Found by LKH-3 [Keld Helsgaun] Tue Apr  9 02:25:53 2024
TYPE : TOUR
DIMENSION : 614
TOUR_SECTION
1
49
109
169
229
230
290
289
349
350
410
409
408
407
467
468
528
527
587
588
589
590
591
592
593
594
595
596
597
598
538
537
477
417
416
415
355
356
296
295
235
175
115
55
54
614
34
94
95
96
156
155
154
153
152
151
150
149
209
210
211
212
213
214
215
216
276
275
274
273
272
271
270
269
268
267
207
208
148
147
87
88
89
90
91
92
93
33
608
22
83
84
85
145
144
143
203
204
205
265
264
263
322
382
381
380
379
378
377
376
375
374
373
313
314
315
316
317
318
319
320
321
261
260
259
199
200
201
141
140
80
20
612
19
79
139
138
137
197
198
258
257
256
255
254
253
252
251
191
192
193
194
195
196
136
135
134
133
132
131
71
72
73
74
75
76
77
78
18
17
16
15
14
13
12
11
10
611
58
118
178
239
299
360
361
302
303
304
305
306
307
308
368
428
488
487
486
485
484
483
482
541
481
422
423
424
425
426
427
367
366
365
364
363
362
421
420
419
359
298
238
177
117
57
607
9
69
70
130
190
250
310
311
312
372
371
370
430
431
432
433
434
435
495
494
554
555
556
557
558
559
499
498
497
496
436
437
438
439
440
441
442
443
383
384
324
323
262
202
142
82
81
21
605
47
48
108
107
167
168
228
227
226
286
287
288
348
347
346
405
404
464
465
525
524
523
522
462
463
403
343
344
284
283
223
224
164
104
105
45
606
43
42
102
101
161
221
220
280
281
341
340
400
460
459
458
457
456
455
454
453
452
451
450
449
389
390
391
392
393
394
395
396
397
398
399
339
338
278
279
219
218
158
159
160
100
41
604
40
39
38
37
36
35
32
31
30
29
28
27
25
24
23
613
50
51
111
110
170
171
172
232
231
291
351
411
412
413
473
472
471
470
469
529
530
531
532
533
534
535
536
476
475
474
414
354
353
352
292
293
294
234
233
173
174
114
113
112
52
53
609
59
60
61
2
62
121
120
119
179
180
181
122
182
241
240
300
301
242
243
244
245
246
247
248
188
187
186
185
184
183
123
124
125
126
127
67
66
65
64
63
3
4
603
56
116
176
236
237
297
357
358
418
478
479
480
540
539
599
600
601
542
543
544
545
546
547
548
549
550
551
552
553
493
492
491
490
489
429
369
309
249
189
129
128
68
8
7
6
5
610
46
106
166
165
225
285
345
406
466
526
586
585
584
583
582
581
580
579
578
577
576
575
574
573
572
571
570
569
568
567
566
506
505
565
564
563
562
561
560
500
501
502
503
504
444
445
446
386
385
325
326
266
206
146
86
26
602
44
103
163
162
222
282
342
402
401
461
521
520
519
518
517
516
515
514
513
512
511
510
509
508
507
447
448
388
387
327
328
329
330
331
332
333
334
335
336
337
277
217
157
97
98
99
-1
EOF
